%%%mzn-stat: initTime=0.003188748
%%%mzn-stat: objective=411
%%%mzn-stat: nodes=1576
%%%mzn-stat: restarts=0
%%%mzn-stat: peakDepth=100
%%%mzn-stat: solveTime=0.093212565
%%%mzn-stat: variables=274
%%%mzn-stat: propagators=368
%%%mzn-stat: failures=1185
%%%mzn-stat: propagations=134529
%%%mzn-stat: nogoods=1185
%%%mzn-stat: AverageConflictSize=4.1864978902953585
%%%mzn-stat: NumUnitNogoodsLearned=410
%%%mzn-stat: AverageLearnedNogoodLength=11.462447257383966
%%%mzn-stat: AverageBacktrackAmount=0
%%%mzn-stat: AverageLbd=4.459915611814346
%%%mzn-stat-end
maxleg = 411;
succ = array1d(1..20,[8, 10, 11, 3, 9, 20, 14, 12, 15, 19, 17, 2, 18, 5, 13, 7, 16, 6, 4, 1]);
% time elapsed: 0.50 s
----------
==========
% time elapsed: 0.50 s
%%%mzn-stat: initTime=0.003188748
%%%mzn-stat: objective=411
%%%mzn-stat: nodes=1576
%%%mzn-stat: restarts=0
%%%mzn-stat: peakDepth=100
%%%mzn-stat: solveTime=0.093215509
%%%mzn-stat: variables=274
%%%mzn-stat: propagators=368
%%%mzn-stat: failures=1185
%%%mzn-stat: propagations=134529
%%%mzn-stat: nogoods=1185
%%%mzn-stat: AverageConflictSize=4.1864978902953585
%%%mzn-stat: NumUnitNogoodsLearned=410
%%%mzn-stat: AverageLearnedNogoodLength=11.462447257383966
%%%mzn-stat: AverageBacktrackAmount=0
%%%mzn-stat: AverageLbd=4.459915611814346
%%%mzn-stat-end
